12834
11111111010111111111
5 5 5 5 5 5 5 5 19 19 19 7 7 7 7 7 7 13 13 12 12 13 13 12 3 15 15 9 9 9 9 9 9 15 18 18 18 18 18 18 18 18 18 18 5 5 7 12 12 15 15 4 7 18 5 11 3 3 1 6 18 2 15 12 0 12 9 5 6 5 17 18 6 3 3 15 3 6 6 2 14 19 12 15 15 3 1 6 15 1 2 2 17 9 2 17 1 6 1 16 